CMPL model generation - running

CMPL version: 1.11.0
Authors: Thomas Schleiff, Mike Steglich
Distributed under the GPLv3 

create model instance ...
write model instance ...
CMPL model generation - finished

Solver - running


Welcome to IBM(R) ILOG(R) CPLEX(R) Interactive Optimizer 12.7.1.0
  with Simplex, Mixed Integer & Barrier Optimizers
5725-A06 5725-A29 5724-Y48 5724-Y49 5724-Y54 5724-Y55 5655-Y21
Copyright IBM Corp. 1988, 2017.  All Rights Reserved.

Type 'help' for a list of available commands.
Type 'help' followed by a command name for more
information on commands.

CPLEX> Specified objective sense: MINIMIZE
Selected objective  name:  line[1]
Selected RHS        name:  RHS
Selected bound      name:  BOUND
Problem '/tmp/cmpl.T27349.mps' read.
Read time = 0.15 sec. (20.24 ticks)
CPLEX> New value for mixed integer optimality gap tolerance: 0.007
CPLEX> CPLEX> CPXPARAM_Read_APIEncoding                        "UTF-8"
CPXPARAM_MIP_Tolerances_MIPGap                   0.0070000000000000001
Tried aggregator 3 times.
MIP Presolve eliminated 81366 rows and 53297 columns.
MIP Presolve modified 8429 coefficients.
Aggregator did 1759 substitutions.
Reduced MIP has 7102 rows, 5164 columns, and 21976 nonzeros.
Reduced MIP has 3535 binaries, 0 generals, 0 SOSs, and 0 indicators.
Presolve time = 0.12 sec. (105.58 ticks)
Found incumbent of value 4749.128555 after 0.15 sec. (123.86 ticks)
Probing fixed 0 vars, tightened 345 bounds.
Probing time = 0.04 sec. (15.32 ticks)
Tried aggregator 1 time.
MIP Presolve modified 972 coefficients.
Reduced MIP has 7102 rows, 5164 columns, and 21976 nonzeros.
Reduced MIP has 3745 binaries, 0 generals, 0 SOSs, and 0 indicators.
Presolve time = 0.02 sec. (16.73 ticks)
Probing time = 0.01 sec. (3.04 ticks)
Clique table members: 3015.
MIP emphasis: balance optimality and feasibility.
MIP search method: dynamic search.
Parallel mode: none, using 1 thread.
Root relaxation solution time = 0.44 sec. (304.83 ticks)

        Nodes                                         Cuts/
   Node  Left     Objective  IInf  Best Integer    Best Bound    ItCnt     Gap

*     0+    0                         4749.1286     -445.6669           109.38%
      0     0     2152.7118   481     4749.1286     2152.7118     6576   54.67%
*     0+    0                         2186.2775     2152.7118             1.54%
      0     0     2154.7594   427     2186.2775     Cuts: 388     7514    1.44%
*     0+    0                         2182.1106     2154.7594             1.25%
      0     0     2155.8861   434     2182.1106     Cuts: 453     8683    1.20%
*     0+    0                         2180.6240     2155.8861             1.13%
      0     0     2156.3597   434     2180.6240     Cuts: 416     9783    1.11%
*     0+    0                         2179.6224     2156.3597             1.07%
*     0+    0                         2179.3410     2156.3597             1.05%
      0     0     2157.1396   426     2179.3410     Cuts: 462    11063    1.02%
*     0+    0                         2177.1368     2157.1396             0.92%
      0     0     2157.6368   419     2177.1368     Cuts: 407    11972    0.90%
*     0+    0                         2175.7178     2157.6368             0.83%
      0     0     2158.1677   425     2175.7178     Cuts: 398    12732    0.81%
*     0+    0                         2175.1494     2158.1677             0.78%
      0     0     2158.5546   424     2175.1494     Cuts: 325    13362    0.76%
      0     0     2158.8171   444     2175.1494     Cuts: 257    13899    0.75%
      0     0     2159.0420   442     2175.1494     Cuts: 251    14317    0.74%
      0     0     2159.2215   435     2175.1494     Cuts: 239    14718    0.73%
      0     0     2159.3395   451     2175.1494     Cuts: 181    15030    0.73%
*     0+    0                         2172.5288     2159.3395             0.61%

Flow cuts applied:  669
Mixed integer rounding cuts applied:  634
Gomory fractional cuts applied:  2

Root node processing (before b&c):
  Real time             =    5.02 sec. (3795.33 ticks)
Sequential b&c:
  Real time             =    0.00 sec. (0.00 ticks)
                          ------------
Total (root+branch&cut) =    5.02 sec. (3795.33 ticks)

Solution pool: 10 solutions saved.

MIP - Integer optimal, tolerance (0.007/1e-06):  Objective =  2.1725287630e+03
Current MIP best bound =  2.1593395466e+03 (gap = 13.1892, 0.61%)
Solution time =    5.02 sec.  Iterations = 15030  Nodes = 0 (1)
Deterministic time = 3795.50 ticks  (756.20 ticks/sec)

CPLEX> Incumbent solution written to file '/tmp/cmpl.T27349.gsol'.
CPLEX> 
CMPL: Time used for model generation: 17 seconds
CMPL: Time used for solving the model: 7 seconds


Solution written to ASCII file: /media/sf_ltf/results/output_generated/2016-05-02-5/fair-nonlinear.sol

Solver - finished
